<number of tasks>
89

<cycle time>
137

<task times>
1 28
2 17
3 7
4 10
5 12
6 16
7 13
8 8
9 13
10 24
11 16
12 24
13 12
14 20
15 22
16 22
17 22
18 47
19 6
20 12
21 6
22 22
23 7
24 14
25 68
26 15
27 8
28 74
29 32
30 11
31 18
32 15
33 42
34 27
35 38
36 38
37 26
38 35
39 31
40 8
41 14
42 8
43 8
44 8
45 17
46 7
47 19
48 12
49 24
50 26
51 22
52 14
53 27
54 60
55 4
56 2
57 1
58 9
59 5
60 6
61 7
62 12
63 2
64 11
65 14
66 6
67 21
68 14
69 1
70 6
71 21
72 11
73 14
74 28
75 12
76 11
77 30
78 22
79 14
80 31
81 18
82 16
83 7
84 38
85 8
86 31
87 29
88 12
89 18

<precedence relations>
1,2
2,3
3,4
4,5
4,6
4,7
4,8
4,9
5,10
6,11
7,12
8,18
9,18
10,14
11,12
12,13
13,14
14,15
14,16
15,17
16,54
17,18
18,19
18,20
19,22
20,21
20,28
21,54
22,23
23,24
24,25
25,26
25,27
25,29
26,37
27,33
28,29
29,31
30,54
31,32
32,33
33,34
34,35
35,36
35,37
36,38
37,38
38,39
39,40
39,41
39,42
39,43
40,44
41,53
42,53
43,45
44,52
45,46
46,47
47,48
47,49
49,50
50,51
51,52
52,53
53,68
53,69
53,70
53,71
54,55
55,56
56,57
57,58
57,59
57,60
57,61
57,62
57,63
57,64
57,65
57,66
58,67
59,67
60,67
61,67
62,67
63,67
64,67
65,67
66,67
67,73
68,72
69,72
70,72
71,73
72,78
72,80
73,74
74,75
74,76
75,77
76,81
77,78
78,79
79,81
80,81
81,82
81,84
81,85
82,83
83,86
84,86
85,86
86,87
87,88
87,89

<setup times forward>
4,8:1
5,8:1
5,10:1
5,12:1
5,13:1
6,8:1
6,10:1
7,8:1
7,10:1
7,12:1
8,5:1
8,6:1
8,7:1
8,9:1
8,11:1
8,16:2
8,18:2
8,30:1
9,8:1
9,10:1
9,12:1
9,13:1
9,14:1
9,15:1
9,16:1
9,17:1
9,18:1
10,6:1
10,7:1
10,9:1
10,11:1
10,30:1
11,8:1
11,10:1
11,12:1
12,5:1
12,9:1
12,30:1
13,5:1
13,9:1
13,30:1
14,9:1
14,16:2
14,30:1
15,9:1
15,16:2
15,30:1
16,8:2
16,9:1
16,15:2
16,17:2
16,25:1
16,26:1
16,27:1
16,28:1
16,29:1
16,30:1
16,31:1
16,36:1
16,37:1
16,38:1
16,39:1
16,40:2
16,41:2
16,42:2
16,43:1
16,44:2
16,45:1
16,46:1
16,47:1
16,49:1
16,50:2
16,51:2
16,52:2
16,54:1
16,68:1
16,69:1
16,70:1
16,71:1
16,72:1
16,80:1
17,9:1
17,16:2
17,18:2
17,30:1
18,30:1
19,28:1
19,30:1
19,54:1
19,55:2
19,56:2
19,57:2
19,62:2
19,63:2
19,65:2
20,25:1
20,26:1
20,27:1
20,28:1
20,30:1
21,25:1
21,26:1
21,27:1
21,28:1
21,29:1
21,30:1
21,31:1
21,36:1
21,37:1
21,38:1
21,39:1
21,40:2
21,41:2
21,42:2
21,43:1
21,44:2
21,45:1
21,46:1
21,47:1
21,49:1
21,50:2
21,51:2
21,52:2
21,54:1
21,68:1
21,69:1
21,70:1
21,71:1
21,72:1
21,80:1
22,28:1
22,30:1
22,54:1
22,55:2
22,56:2
22,57:2
22,62:2
22,63:2
22,65:2
23,28:1
23,30:1
23,54:1
23,55:2
23,56:2
23,57:2
23,62:2
23,63:2
23,65:2
24,25:1
24,28:1
24,30:1
24,54:1
24,55:2
24,56:2
24,57:2
24,62:2
24,63:2
24,65:2
25,16:1
25,20:1
25,21:1
25,54:2
25,55:1
25,56:1
25,57:1
25,58:1
25,59:1
25,60:1
25,61:1
25,62:1
25,63:1
25,64:1
25,65:1
25,66:1
25,67:1
26,16:1
26,20:1
26,21:1
26,32:1
26,33:1
26,34:1
26,35:1
26,54:2
26,55:1
26,56:1
26,57:1
26,58:1
26,59:1
26,60:1
26,61:1
26,62:1
26,63:1
26,64:1
26,65:1
26,66:1
26,67:1
27,16:1
27,20:1
27,21:1
27,32:1
27,33:1
27,54:2
27,55:1
27,56:1
27,57:1
27,58:1
27,59:1
27,60:1
27,61:1
27,62:1
27,63:1
27,64:1
27,65:1
27,66:1
27,67:1
28,16:1
28,19:1
28,21:1
28,22:1
28,23:1
28,24:1
28,54:2
28,55:1
28,56:1
28,57:1
28,58:1
28,59:1
28,60:1
28,61:1
28,62:1
28,63:1
28,64:1
28,65:1
28,66:1
28,67:1
29,16:1
29,21:1
29,54:2
29,55:1
29,56:1
29,57:1
29,58:1
29,59:1
29,60:1
29,61:1
29,62:1
29,63:1
29,64:1
29,65:1
29,66:1
29,67:1
30,8:1
30,10:1
30,12:1
30,13:1
30,14:1
30,15:1
30,16:1
30,17:1
30,18:1
30,19:1
30,20:1
30,21:1
30,22:1
30,23:1
30,24:1
30,32:1
30,33:1
30,34:1
30,35:1
30,40:1
30,41:1
30,42:1
30,43:2
30,44:1
30,45:2
30,46:2
30,47:2
30,48:1
30,49:2
30,50:1
30,51:1
30,52:1
30,53:1
30,54:2
30,68:2
30,69:2
30,70:2
30,71:2
30,72:2
30,80:2
31,16:1
31,21:1
31,32:1
31,54:2
31,55:1
31,56:1
31,57:1
31,58:1
31,59:1
31,60:1
31,61:1
31,62:1
31,63:1
31,64:1
31,65:1
31,66:1
31,67:1
32,26:1
32,27:1
32,30:1
32,54:1
32,55:2
32,56:2
32,57:2
32,62:2
32,63:2
32,65:2
33,26:1
33,30:1
33,54:1
33,55:2
33,56:2
33,57:2
33,62:2
33,63:2
33,65:2
34,26:1
34,30:1
34,54:1
34,55:2
34,56:2
34,57:2
34,62:2
34,63:2
34,65:2
35,26:1
35,30:1
35,36:1
35,37:1
35,54:1
35,55:2
35,56:2
35,57:2
35,62:2
35,63:2
35,65:2
36,16:1
36,21:1
36,54:2
36,55:1
36,56:1
36,57:1
36,58:1
36,59:1
36,60:1
36,61:1
36,62:1
36,63:1
36,64:1
36,65:1
36,66:1
36,67:1
37,16:1
37,21:1
37,54:2
37,55:1
37,56:1
37,57:1
37,58:1
37,59:1
37,60:1
37,61:1
37,62:1
37,63:1
37,64:1
37,65:1
37,66:1
37,67:1
38,16:1
38,21:1
38,54:2
38,55:1
38,56:1
38,57:1
38,58:1
38,59:1
38,60:1
38,61:1
38,62:1
38,63:1
38,64:1
38,65:1
38,66:1
38,67:1
39,16:1
39,21:1
39,40:1
39,41:1
39,42:1
39,43:2
39,54:2
39,55:1
39,56:1
39,57:1
39,58:1
39,59:1
39,60:1
39,61:1
39,62:1
39,63:1
39,64:1
39,65:1
39,66:1
39,67:1
40,16:2
40,21:2
40,30:1
40,43:3
40,45:3
40,46:3
40,47:3
40,48:2
40,49:3
40,54:3
40,58:2
40,59:2
40,60:2
40,61:2
40,64:2
40,66:2
40,67:2
41,16:2
41,21:2
41,30:1
41,43:3
41,45:3
41,46:3
41,47:3
41,48:2
41,49:3
41,53:2
41,54:3
41,58:2
41,59:2
41,60:2
41,61:2
41,64:2
41,66:2
41,67:2
42,16:2
42,21:2
42,30:1
42,43:3
42,45:3
42,46:3
42,47:3
42,48:2
42,49:3
42,53:2
42,54:3
42,58:2
42,59:2
42,60:2
42,61:2
42,64:2
42,66:2
42,67:2
43,16:1
43,21:1
43,30:2
43,40:3
43,41:3
43,42:3
43,44:3
43,55:3
43,56:3
43,57:3
43,58:1
43,59:1
43,60:1
43,61:1
43,62:3
43,63:3
43,64:1
43,65:3
43,66:1
43,67:1
44,16:2
44,21:2
44,30:1
44,43:3
44,45:3
44,46:3
44,47:3
44,48:2
44,49:3
44,54:3
44,58:2
44,59:2
44,60:2
44,61:2
44,64:2
44,66:2
44,67:2
45,16:1
45,21:1
45,30:2
45,40:3
45,41:3
45,42:3
45,44:3
45,55:3
45,56:3
45,57:3
45,58:1
45,59:1
45,60:1
45,61:1
45,62:3
45,63:3
45,64:1
45,65:3
45,66:1
45,67:1
46,16:1
46,21:1
46,30:2
46,40:3
46,41:3
46,42:3
46,44:3
46,55:3
46,56:3
46,57:3
46,58:1
46,59:1
46,60:1
46,61:1
46,62:3
46,63:3
46,64:1
46,65:3
46,66:1
46,67:1
47,16:1
47,21:1
47,30:2
47,40:3
47,41:3
47,42:3
47,44:3
47,48:1
47,55:3
47,56:3
47,57:3
47,58:1
47,59:1
47,60:1
47,61:1
47,62:3
47,63:3
47,64:1
47,65:3
47,66:1
47,67:1
48,30:1
48,40:2
48,41:2
48,42:2
48,44:2
48,49:1
48,50:2
48,51:2
48,52:2
48,54:1
48,55:2
48,56:2
48,57:2
48,62:2
48,63:2
48,65:2
48,68:1
48,69:1
48,70:1
48,71:1
48,72:1
48,73:1
48,74:1
48,75:1
48,76:1
48,77:1
48,78:1
48,79:1
48,80:1
48,81:1
48,82:1
48,83:1
48,84:1
48,85:1
48,86:1
48,87:1
48,88:1
48,89:1
49,16:1
49,21:1
49,30:2
49,40:3
49,41:3
49,42:3
49,44:3
49,48:1
49,50:3
49,55:3
49,56:3
49,57:3
49,58:1
49,59:1
49,60:1
49,61:1
49,62:3
49,63:3
49,64:1
49,65:3
49,66:1
49,67:1
50,16:2
50,21:2
50,30:1
50,48:2
50,54:3
50,58:2
50,59:2
50,60:2
50,61:2
50,64:2
50,66:2
50,67:2
51,16:2
51,21:2
51,30:1
51,48:2
51,54:3
51,58:2
51,59:2
51,60:2
51,61:2
51,64:2
51,66:2
51,67:2
52,16:2
52,21:2
52,30:1
52,48:2
52,53:2
52,54:3
52,58:2
52,59:2
52,60:2
52,61:2
52,64:2
52,66:2
52,67:2
53,30:1
53,54:1
53,55:2
53,56:2
53,57:2
53,62:2
53,63:2
53,65:2
53,68:1
53,69:1
53,70:1
53,71:1
54,19:1
54,22:1
54,23:1
54,24:1
54,25:2
54,26:2
54,27:2
54,28:2
54,29:2
54,31:2
54,32:1
54,33:1
54,34:1
54,35:1
54,36:2
54,37:2
54,38:2
54,39:2
54,40:3
54,41:3
54,42:3
54,44:3
54,48:1
54,50:3
54,51:3
54,52:3
54,53:1
54,55:3
55,19:2
55,22:2
55,23:2
55,24:2
55,25:1
55,26:1
55,27:1
55,28:1
55,29:1
55,31:1
55,32:2
55,33:2
55,34:2
55,35:2
55,36:1
55,37:1
55,38:1
55,39:1
55,43:3
55,45:3
55,46:3
55,47:3
55,48:2
55,49:3
55,53:2
55,68:3
55,69:3
55,70:3
55,71:3
55,72:3
55,80:3
56,19:2
56,22:2
56,23:2
56,24:2
56,25:1
56,26:1
56,27:1
56,28:1
56,29:1
56,31:1
56,32:2
56,33:2
56,34:2
56,35:2
56,36:1
56,37:1
56,38:1
56,39:1
56,43:3
56,45:3
56,46:3
56,47:3
56,48:2
56,49:3
56,53:2
56,68:3
56,69:3
56,70:3
56,71:3
56,72:3
56,80:3
57,19:2
57,22:2
57,23:2
57,24:2
57,25:1
57,26:1
57,27:1
57,28:1
57,29:1
57,31:1
57,32:2
57,33:2
57,34:2
57,35:2
57,36:1
57,37:1
57,38:1
57,39:1
57,43:3
57,45:3
57,46:3
57,47:3
57,48:2
57,49:3
57,53:2
57,58:2
57,59:2
57,60:2
57,61:2
57,64:2
57,66:2
57,68:3
57,69:3
57,70:3
57,71:3
57,72:3
57,80:3
58,25:1
58,26:1
58,27:1
58,28:1
58,29:1
58,31:1
58,36:1
58,37:1
58,38:1
58,39:1
58,40:2
58,41:2
58,42:2
58,43:1
58,44:2
58,45:1
58,46:1
58,47:1
58,49:1
58,50:2
58,51:2
58,52:2
58,62:2
58,63:2
58,65:2
58,68:1
58,69:1
58,70:1
58,71:1
58,72:1
58,80:1
59,25:1
59,26:1
59,27:1
59,28:1
59,29:1
59,31:1
59,36:1
59,37:1
59,38:1
59,39:1
59,40:2
59,41:2
59,42:2
59,43:1
59,44:2
59,45:1
59,46:1
59,47:1
59,49:1
59,50:2
59,51:2
59,52:2
59,62:2
59,63:2
59,65:2
59,68:1
59,69:1
59,70:1
59,71:1
59,72:1
59,80:1
60,25:1
60,26:1
60,27:1
60,28:1
60,29:1
60,31:1
60,36:1
60,37:1
60,38:1
60,39:1
60,40:2
60,41:2
60,42:2
60,43:1
60,44:2
60,45:1
60,46:1
60,47:1
60,49:1
60,50:2
60,51:2
60,52:2
60,62:2
60,63:2
60,65:2
60,68:1
60,69:1
60,70:1
60,71:1
60,72:1
60,80:1
61,25:1
61,26:1
61,27:1
61,28:1
61,29:1
61,31:1
61,36:1
61,37:1
61,38:1
61,39:1
61,40:2
61,41:2
61,42:2
61,43:1
61,44:2
61,45:1
61,46:1
61,47:1
61,49:1
61,50:2
61,51:2
61,52:2
61,62:2
61,63:2
61,65:2
61,68:1
61,69:1
61,70:1
61,71:1
61,72:1
61,80:1
62,19:2
62,22:2
62,23:2
62,24:2
62,25:1
62,26:1
62,27:1
62,28:1
62,29:1
62,31:1
62,32:2
62,33:2
62,34:2
62,35:2
62,36:1
62,37:1
62,38:1
62,39:1
62,43:3
62,45:3
62,46:3
62,47:3
62,48:2
62,49:3
62,53:2
62,58:2
62,59:2
62,60:2
62,61:2
62,64:2
62,66:2
62,67:2
62,68:3
62,69:3
62,70:3
62,71:3
62,72:3
62,80:3
63,19:2
63,22:2
63,23:2
63,24:2
63,25:1
63,26:1
63,27:1
63,28:1
63,29:1
63,31:1
63,32:2
63,33:2
63,34:2
63,35:2
63,36:1
63,37:1
63,38:1
63,39:1
63,43:3
63,45:3
63,46:3
63,47:3
63,48:2
63,49:3
63,53:2
63,58:2
63,59:2
63,60:2
63,61:2
63,64:2
63,66:2
63,67:2
63,68:3
63,69:3
63,70:3
63,71:3
63,72:3
63,80:3
64,25:1
64,26:1
64,27:1
64,28:1
64,29:1
64,31:1
64,36:1
64,37:1
64,38:1
64,39:1
64,40:2
64,41:2
64,42:2
64,43:1
64,44:2
64,45:1
64,46:1
64,47:1
64,49:1
64,50:2
64,51:2
64,52:2
64,62:2
64,63:2
64,65:2
64,68:1
64,69:1
64,70:1
64,71:1
64,72:1
64,80:1
65,19:2
65,22:2
65,23:2
65,24:2
65,25:1
65,26:1
65,27:1
65,28:1
65,29:1
65,31:1
65,32:2
65,33:2
65,34:2
65,35:2
65,36:1
65,37:1
65,38:1
65,39:1
65,43:3
65,45:3
65,46:3
65,47:3
65,48:2
65,49:3
65,53:2
65,58:2
65,59:2
65,60:2
65,61:2
65,64:2
65,66:2
65,67:2
65,68:3
65,69:3
65,70:3
65,71:3
65,72:3
65,80:3
66,25:1
66,26:1
66,27:1
66,28:1
66,29:1
66,31:1
66,36:1
66,37:1
66,38:1
66,39:1
66,40:2
66,41:2
66,42:2
66,43:1
66,44:2
66,45:1
66,46:1
66,47:1
66,49:1
66,50:2
66,51:2
66,52:2
66,62:2
66,63:2
66,65:2
66,68:1
66,69:1
66,70:1
66,71:1
66,72:1
66,80:1
67,25:1
67,26:1
67,27:1
67,28:1
67,29:1
67,31:1
67,36:1
67,37:1
67,38:1
67,39:1
67,40:2
67,41:2
67,42:2
67,43:1
67,44:2
67,45:1
67,46:1
67,47:1
67,49:1
67,50:2
67,51:2
67,52:2
67,68:1
67,69:1
67,70:1
67,71:1
67,72:1
67,73:1
67,80:1
68,16:1
68,21:1
68,30:2
68,48:1
68,55:3
68,56:3
68,57:3
68,58:1
68,59:1
68,60:1
68,61:1
68,62:3
68,63:3
68,64:1
68,65:3
68,66:1
68,67:1
68,75:2
68,76:2
68,77:2
69,16:1
69,21:1
69,30:2
69,48:1
69,55:3
69,56:3
69,57:3
69,58:1
69,59:1
69,60:1
69,61:1
69,62:3
69,63:3
69,64:1
69,65:3
69,66:1
69,67:1
69,75:2
69,76:2
69,77:2
70,16:1
70,21:1
70,30:2
70,48:1
70,55:3
70,56:3
70,57:3
70,58:1
70,59:1
70,60:1
70,61:1
70,62:3
70,63:3
70,64:1
70,65:3
70,66:1
70,67:1
70,75:2
70,76:2
70,77:2
71,16:1
71,21:1
71,30:2
71,48:1
71,55:3
71,56:3
71,57:3
71,58:1
71,59:1
71,60:1
71,61:1
71,62:3
71,63:3
71,64:1
71,65:3
71,66:1
71,67:1
72,16:1
72,21:1
72,30:2
72,48:1
72,55:3
72,56:3
72,57:3
72,58:1
72,59:1
72,60:1
72,61:1
72,62:3
72,63:3
72,64:1
72,65:3
72,66:1
72,67:1
72,75:2
72,76:2
72,77:2
72,78:2
73,48:1
74,48:1
74,75:2
74,76:2
75,48:1
75,68:2
75,69:2
75,70:2
75,72:2
75,80:2
76,48:1
76,68:2
76,69:2
76,70:2
76,72:2
76,80:2
77,48:1
77,68:2
77,69:2
77,70:2
77,72:2
77,80:2
78,48:1
78,80:2
79,48:1
79,80:2
80,16:1
80,21:1
80,30:2
80,48:1
80,55:3
80,56:3
80,57:3
80,58:1
80,59:1
80,60:1
80,61:1
80,62:3
80,63:3
80,64:1
80,65:3
80,66:1
80,67:1
80,75:2
80,76:2
80,77:2
80,78:2
80,79:2
80,81:2
81,48:1
82,48:1
83,48:1
84,48:1
85,48:1
86,48:1
87,48:1
88,48:1
89,48:1

<setup times backward>
1,1:1
1,30:1
2,1:1
2,2:1
2,30:1
3,1:1
3,2:1
3,3:1
3,30:1
4,1:1
4,2:1
4,3:1
4,4:1
4,30:1
5,1:1
5,2:1
5,3:1
5,4:1
5,5:1
5,6:1
5,7:1
5,9:1
5,11:1
5,30:1
6,1:1
6,2:1
6,3:1
6,4:1
6,5:1
6,6:1
6,7:1
6,9:1
6,30:1
7,1:1
7,2:1
7,3:1
7,4:1
7,5:1
7,6:1
7,7:1
7,9:1
7,11:1
7,30:1
8,1:2
8,2:2
8,3:2
8,4:2
8,5:2
8,6:2
8,7:2
8,8:1
8,9:2
8,10:1
8,11:2
8,12:1
8,13:1
8,14:1
8,15:1
8,16:3
8,17:1
8,30:2
9,1:1
9,2:1
9,3:1
9,4:1
9,5:1
9,6:1
9,7:1
9,9:1
9,11:1
9,16:2
9,30:1
10,1:2
10,2:2
10,3:2
10,4:2
10,5:2
10,6:2
10,7:2
10,8:1
10,9:2
10,10:1
10,11:2
10,12:1
10,13:1
10,30:2
11,1:1
11,2:1
11,3:1
11,4:1
11,5:1
11,6:1
11,7:1
11,9:1
11,11:1
11,30:1
12,1:2
12,2:2
12,3:2
12,4:2
12,5:2
12,6:2
12,7:2
12,8:1
12,9:2
12,10:1
12,11:2
12,12:1
12,30:2
13,1:2
13,2:2
13,3:2
13,4:2
13,5:2
13,6:2
13,7:2
13,8:1
13,9:2
13,10:1
13,11:2
13,12:1
13,13:1
13,30:2
14,1:2
14,2:2
14,3:2
14,4:2
14,5:2
14,6:2
14,7:2
14,8:1
14,9:2
14,10:1
14,11:2
14,12:1
14,13:1
14,14:1
14,30:2
15,1:2
15,2:2
15,3:2
15,4:2
15,5:2
15,6:2
15,7:2
15,8:1
15,9:2
15,10:1
15,11:2
15,12:1
15,13:1
15,14:1
15,15:1
15,16:3
15,30:2
16,16:1
16,18:1
16,19:1
16,20:1
16,21:1
16,22:1
16,23:1
16,24:1
16,32:1
16,33:1
16,34:1
16,35:1
16,43:2
16,45:2
16,46:2
16,47:2
16,48:1
16,49:2
16,53:1
16,68:2
16,69:2
16,70:2
16,71:2
16,72:2
16,80:2
17,1:2
17,2:2
17,3:2
17,4:2
17,5:2
17,6:2
17,7:2
17,8:1
17,9:2
17,10:1
17,11:2
17,12:1
17,13:1
17,14:1
17,15:1
17,16:3
17,17:1
17,30:2
18,16:1
18,18:1
19,16:1
19,18:1
19,19:1
19,20:1
19,21:1
19,54:2
19,58:1
19,59:1
19,60:1
19,61:1
19,64:1
19,66:1
19,67:1
20,16:1
20,18:1
20,19:1
20,20:1
20,22:1
20,23:1
20,24:1
21,16:1
21,18:1
21,19:1
21,20:1
21,21:1
21,22:1
21,23:1
21,24:1
21,32:1
21,33:1
21,34:1
21,35:1
21,43:2
21,45:2
21,46:2
21,47:2
21,48:1
21,49:2
21,53:1
21,68:2
21,69:2
21,70:2
21,71:2
21,72:2
21,80:2
22,16:1
22,18:1
22,19:1
22,20:1
22,21:1
22,22:1
22,54:2
22,58:1
22,59:1
22,60:1
22,61:1
22,64:1
22,66:1
22,67:1
23,16:1
23,18:1
23,19:1
23,20:1
23,21:1
23,22:1
23,23:1
23,54:2
23,58:1
23,59:1
23,60:1
23,61:1
23,64:1
23,66:1
23,67:1
24,16:1
24,18:1
24,19:1
24,20:1
24,21:1
24,22:1
24,23:1
24,24:1
24,54:2
24,58:1
24,59:1
24,60:1
24,61:1
24,64:1
24,66:1
24,67:1
25,1:1
25,2:1
25,3:1
25,4:1
25,5:1
25,6:1
25,7:1
25,9:1
25,11:1
25,16:2
25,18:2
25,19:2
25,20:2
25,21:2
25,22:2
25,23:2
25,24:2
25,25:1
25,28:1
25,30:1
25,54:3
25,58:2
25,59:2
25,60:2
25,61:2
25,64:2
25,66:2
25,67:2
26,1:1
26,2:1
26,3:1
26,4:1
26,5:1
26,6:1
26,7:1
26,9:1
26,11:1
26,16:2
26,18:2
26,19:2
26,20:2
26,21:2
26,22:2
26,23:2
26,24:2
26,25:1
26,26:1
26,27:1
26,28:1
26,29:1
26,30:1
26,31:1
26,32:2
26,33:2
26,34:2
26,35:2
26,36:1
26,54:3
26,58:2
26,59:2
26,60:2
26,61:2
26,64:2
26,66:2
26,67:2
27,1:1
27,2:1
27,3:1
27,4:1
27,5:1
27,6:1
27,7:1
27,9:1
27,11:1
27,16:2
27,18:2
27,19:2
27,20:2
27,21:2
27,22:2
27,23:2
27,24:2
27,25:1
27,26:1
27,27:1
27,28:1
27,29:1
27,30:1
27,31:1
27,32:2
27,54:3
27,58:2
27,59:2
27,60:2
27,61:2
27,64:2
27,66:2
27,67:2
28,1:1
28,2:1
28,3:1
28,4:1
28,5:1
28,6:1
28,7:1
28,9:1
28,11:1
28,16:2
28,18:2
28,19:2
28,20:2
28,21:2
28,22:2
28,23:2
28,24:2
28,25:1
28,26:1
28,27:1
28,28:1
28,30:1
28,54:3
28,58:2
28,59:2
28,60:2
28,61:2
28,64:2
28,66:2
28,67:2
29,1:1
29,2:1
29,3:1
29,4:1
29,5:1
29,6:1
29,7:1
29,9:1
29,11:1
29,16:2
29,18:2
29,19:2
29,20:2
29,21:2
29,22:2
29,23:2
29,24:2
29,25:1
29,26:1
29,27:1
29,28:1
29,29:1
29,30:1
29,54:3
29,58:2
29,59:2
29,60:2
29,61:2
29,64:2
29,66:2
29,67:2
30,1:1
30,2:1
30,3:1
30,4:1
30,5:1
30,6:1
30,7:1
30,9:1
30,11:1
30,16:2
30,18:2
30,19:2
30,20:2
30,21:2
30,22:2
30,23:2
30,24:2
30,25:1
30,26:1
30,27:1
30,28:1
30,29:1
30,30:1
30,31:1
30,32:2
30,33:2
30,34:2
30,35:2
30,36:1
30,37:1
30,38:1
30,39:1
30,43:3
30,45:3
30,46:3
30,47:3
30,48:2
30,49:3
30,53:2
30,68:3
30,69:3
30,70:3
30,71:3
30,72:3
30,80:3
31,1:1
31,2:1
31,3:1
31,4:1
31,5:1
31,6:1
31,7:1
31,9:1
31,11:1
31,16:2
31,18:2
31,19:2
31,20:2
31,21:2
31,22:2
31,23:2
31,24:2
31,25:1
31,26:1
31,27:1
31,28:1
31,29:1
31,30:1
31,31:1
31,54:3
31,58:2
31,59:2
31,60:2
31,61:2
31,64:2
31,66:2
31,67:2
32,16:1
32,18:1
32,19:1
32,20:1
32,21:1
32,22:1
32,23:1
32,24:1
32,32:1
32,54:2
32,58:1
32,59:1
32,60:1
32,61:1
32,64:1
32,66:1
32,67:1
33,16:1
33,18:1
33,19:1
33,20:1
33,21:1
33,22:1
33,23:1
33,24:1
33,32:1
33,33:1
33,54:2
33,58:1
33,59:1
33,60:1
33,61:1
33,64:1
33,66:1
33,67:1
34,16:1
34,18:1
34,19:1
34,20:1
34,21:1
34,22:1
34,23:1
34,24:1
34,32:1
34,33:1
34,34:1
34,54:2
34,58:1
34,59:1
34,60:1
34,61:1
34,64:1
34,66:1
34,67:1
35,16:1
35,18:1
35,19:1
35,20:1
35,21:1
35,22:1
35,23:1
35,24:1
35,32:1
35,33:1
35,34:1
35,35:1
35,54:2
35,58:1
35,59:1
35,60:1
35,61:1
35,64:1
35,66:1
35,67:1
36,1:1
36,2:1
36,3:1
36,4:1
36,5:1
36,6:1
36,7:1
36,9:1
36,11:1
36,16:2
36,18:2
36,19:2
36,20:2
36,21:2
36,22:2
36,23:2
36,24:2
36,25:1
36,26:1
36,27:1
36,28:1
36,29:1
36,30:1
36,31:1
36,32:2
36,33:2
36,34:2
36,35:2
36,36:1
36,37:1
36,54:3
36,58:2
36,59:2
36,60:2
36,61:2
36,64:2
36,66:2
36,67:2
37,1:1
37,2:1
37,3:1
37,4:1
37,5:1
37,6:1
37,7:1
37,9:1
37,11:1
37,16:2
37,18:2
37,19:2
37,20:2
37,21:2
37,22:2
37,23:2
37,24:2
37,25:1
37,26:1
37,27:1
37,28:1
37,29:1
37,30:1
37,31:1
37,32:2
37,33:2
37,34:2
37,35:2
37,36:1
37,37:1
37,54:3
37,58:2
37,59:2
37,60:2
37,61:2
37,64:2
37,66:2
37,67:2
38,1:1
38,2:1
38,3:1
38,4:1
38,5:1
38,6:1
38,7:1
38,9:1
38,11:1
38,16:2
38,18:2
38,19:2
38,20:2
38,21:2
38,22:2
38,23:2
38,24:2
38,25:1
38,26:1
38,27:1
38,28:1
38,29:1
38,30:1
38,31:1
38,32:2
38,33:2
38,34:2
38,35:2
38,36:1
38,37:1
38,38:1
38,54:3
38,58:2
38,59:2
38,60:2
38,61:2
38,64:2
38,66:2
38,67:2
39,1:1
39,2:1
39,3:1
39,4:1
39,5:1
39,6:1
39,7:1
39,9:1
39,11:1
39,16:2
39,18:2
39,19:2
39,20:2
39,21:2
39,22:2
39,23:2
39,24:2
39,25:1
39,26:1
39,27:1
39,28:1
39,29:1
39,30:1
39,31:1
39,32:2
39,33:2
39,34:2
39,35:2
39,36:1
39,37:1
39,38:1
39,39:1
39,54:3
39,58:2
39,59:2
39,60:2
39,61:2
39,64:2
39,66:2
39,67:2
40,1:2
40,2:2
40,3:2
40,4:2
40,5:2
40,6:2
40,7:2
40,8:1
40,9:2
40,10:1
40,11:2
40,12:1
40,13:1
40,14:1
40,15:1
40,16:3
40,17:1
40,18:3
40,19:3
40,20:3
40,21:3
40,22:3
40,23:3
40,24:3
40,25:2
40,26:2
40,27:2
40,28:2
40,29:2
40,30:2
40,31:2
40,32:3
40,33:3
40,34:3
40,35:3
40,36:2
40,37:2
40,38:2
40,39:2
40,40:1
40,41:1
40,42:1
40,43:4
40,45:4
40,46:4
40,47:4
40,48:3
40,49:4
40,50:1
40,51:1
40,54:4
40,55:1
40,56:1
40,57:1
40,58:3
40,59:3
40,60:3
40,61:3
40,62:1
40,63:1
40,64:3
40,65:1
40,66:3
40,67:3
41,1:2
41,2:2
41,3:2
41,4:2
41,5:2
41,6:2
41,7:2
41,8:1
41,9:2
41,10:1
41,11:2
41,12:1
41,13:1
41,14:1
41,15:1
41,16:3
41,17:1
41,18:3
41,19:3
41,20:3
41,21:3
41,22:3
41,23:3
41,24:3
41,25:2
41,26:2
41,27:2
41,28:2
41,29:2
41,30:2
41,31:2
41,32:3
41,33:3
41,34:3
41,35:3
41,36:2
41,37:2
41,38:2
41,39:2
41,40:1
41,41:1
41,42:1
41,43:4
41,44:1
41,45:4
41,46:4
41,47:4
41,48:3
41,49:4
41,50:1
41,51:1
41,52:1
41,54:4
41,55:1
41,56:1
41,57:1
41,58:3
41,59:3
41,60:3
41,61:3
41,62:1
41,63:1
41,64:3
41,65:1
41,66:3
41,67:3
42,1:2
42,2:2
42,3:2
42,4:2
42,5:2
42,6:2
42,7:2
42,8:1
42,9:2
42,10:1
42,11:2
42,12:1
42,13:1
42,14:1
42,15:1
42,16:3
42,17:1
42,18:3
42,19:3
42,20:3
42,21:3
42,22:3
42,23:3
42,24:3
42,25:2
42,26:2
42,27:2
42,28:2
42,29:2
42,30:2
42,31:2
42,32:3
42,33:3
42,34:3
42,35:3
42,36:2
42,37:2
42,38:2
42,39:2
42,40:1
42,41:1
42,42:1
42,43:4
42,44:1
42,45:4
42,46:4
42,47:4
42,48:3
42,49:4
42,50:1
42,51:1
42,52:1
42,54:4
42,55:1
42,56:1
42,57:1
42,58:3
42,59:3
42,60:3
42,61:3
42,62:1
42,63:1
42,64:3
42,65:1
42,66:3
42,67:3
43,43:1
43,54:1
44,1:2
44,2:2
44,3:2
44,4:2
44,5:2
44,6:2
44,7:2
44,8:1
44,9:2
44,10:1
44,11:2
44,12:1
44,13:1
44,14:1
44,15:1
44,16:3
44,17:1
44,18:3
44,19:3
44,20:3
44,21:3
44,22:3
44,23:3
44,24:3
44,25:2
44,26:2
44,27:2
44,28:2
44,29:2
44,30:2
44,31:2
44,32:3
44,33:3
44,34:3
44,35:3
44,36:2
44,37:2
44,38:2
44,39:2
44,40:1
44,41:1
44,42:1
44,43:4
44,44:1
44,45:4
44,46:4
44,47:4
44,48:3
44,49:4
44,50:1
44,51:1
44,54:4
44,55:1
44,56:1
44,57:1
44,58:3
44,59:3
44,60:3
44,61:3
44,62:1
44,63:1
44,64:3
44,65:1
44,66:3
44,67:3
45,43:1
45,45:1
45,54:1
46,43:1
46,45:1
46,46:1
46,54:1
47,43:1
47,45:1
47,46:1
47,47:1
47,54:1
48,16:1
48,18:1
48,19:1
48,20:1
48,21:1
48,22:1
48,23:1
48,24:1
48,32:1
48,33:1
48,34:1
48,35:1
48,43:2
48,45:2
48,46:2
48,47:2
48,48:1
48,49:2
48,53:1
48,54:2
48,58:1
48,59:1
48,60:1
48,61:1
48,64:1
48,66:1
48,67:1
48,68:2
48,69:2
48,70:2
48,71:2
48,72:2
48,73:2
48,74:2
48,80:2
49,43:1
49,45:1
49,46:1
49,47:1
49,49:1
49,54:1
50,1:2
50,2:2
50,3:2
50,4:2
50,5:2
50,6:2
50,7:2
50,8:1
50,9:2
50,10:1
50,11:2
50,12:1
50,13:1
50,14:1
50,15:1
50,16:3
50,17:1
50,18:3
50,19:3
50,20:3
50,21:3
50,22:3
50,23:3
50,24:3
50,25:2
50,26:2
50,27:2
50,28:2
50,29:2
50,30:2
50,31:2
50,32:3
50,33:3
50,34:3
50,35:3
50,36:2
50,37:2
50,38:2
50,39:2
50,40:1
50,41:1
50,42:1
50,43:4
50,44:1
50,45:4
50,46:4
50,47:4
50,48:3
50,49:4
50,50:1
50,54:4
50,55:1
50,56:1
50,57:1
50,58:3
50,59:3
50,60:3
50,61:3
50,62:1
50,63:1
50,64:3
50,65:1
50,66:3
50,67:3
51,1:2
51,2:2
51,3:2
51,4:2
51,5:2
51,6:2
51,7:2
51,8:1
51,9:2
51,10:1
51,11:2
51,12:1
51,13:1
51,14:1
51,15:1
51,16:3
51,17:1
51,18:3
51,19:3
51,20:3
51,21:3
51,22:3
51,23:3
51,24:3
51,25:2
51,26:2
51,27:2
51,28:2
51,29:2
51,30:2
51,31:2
51,32:3
51,33:3
51,34:3
51,35:3
51,36:2
51,37:2
51,38:2
51,39:2
51,40:1
51,41:1
51,42:1
51,43:4
51,44:1
51,45:4
51,46:4
51,47:4
51,48:3
51,49:4
51,50:1
51,51:1
51,54:4
51,55:1
51,56:1
51,57:1
51,58:3
51,59:3
51,60:3
51,61:3
51,62:1
51,63:1
51,64:3
51,65:1
51,66:3
51,67:3
52,1:2
52,2:2
52,3:2
52,4:2
52,5:2
52,6:2
52,7:2
52,8:1
52,9:2
52,10:1
52,11:2
52,12:1
52,13:1
52,14:1
52,15:1
52,16:3
52,17:1
52,18:3
52,19:3
52,20:3
52,21:3
52,22:3
52,23:3
52,24:3
52,25:2
52,26:2
52,27:2
52,28:2
52,29:2
52,30:2
52,31:2
52,32:3
52,33:3
52,34:3
52,35:3
52,36:2
52,37:2
52,38:2
52,39:2
52,40:1
52,41:1
52,42:1
52,43:4
52,44:1
52,45:4
52,46:4
52,47:4
52,48:3
52,49:4
52,50:1
52,51:1
52,52:1
52,54:4
52,55:1
52,56:1
52,57:1
52,58:3
52,59:3
52,60:3
52,61:3
52,62:1
52,63:1
52,64:3
52,65:1
52,66:3
52,67:3
53,16:1
53,18:1
53,19:1
53,20:1
53,21:1
53,22:1
53,23:1
53,24:1
53,32:1
53,33:1
53,34:1
53,35:1
53,43:2
53,45:2
53,46:2
53,47:2
53,48:1
53,49:2
53,53:1
53,54:2
53,58:1
53,59:1
53,60:1
53,61:1
53,64:1
53,66:1
53,67:1
54,43:1
54,45:1
54,46:1
54,47:1
54,49:1
54,54:1
54,68:1
54,69:1
54,70:1
54,71:1
54,72:1
54,80:1
55,1:2
55,2:2
55,3:2
55,4:2
55,5:2
55,6:2
55,7:2
55,8:1
55,9:2
55,10:1
55,11:2
55,12:1
55,13:1
55,14:1
55,15:1
55,16:3
55,17:1
55,18:3
55,19:3
55,20:3
55,21:3
55,22:3
55,23:3
55,24:3
55,25:2
55,26:2
55,27:2
55,28:2
55,29:2
55,30:2
55,31:2
55,32:3
55,33:3
55,34:3
55,35:3
55,36:2
55,37:2
55,38:2
55,39:2
55,40:1
55,41:1
55,42:1
55,43:4
55,44:1
55,45:4
55,46:4
55,47:4
55,48:3
55,49:4
55,50:1
55,51:1
55,52:1
55,53:3
55,54:4
55,55:1
55,68:4
55,69:4
55,70:4
55,71:4
55,72:4
55,80:4
56,1:2
56,2:2
56,3:2
56,4:2
56,5:2
56,6:2
56,7:2
56,8:1
56,9:2
56,10:1
56,11:2
56,12:1
56,13:1
56,14:1
56,15:1
56,16:3
56,17:1
56,18:3
56,19:3
56,20:3
56,21:3
56,22:3
56,23:3
56,24:3
56,25:2
56,26:2
56,27:2
56,28:2
56,29:2
56,30:2
56,31:2
56,32:3
56,33:3
56,34:3
56,35:3
56,36:2
56,37:2
56,38:2
56,39:2
56,40:1
56,41:1
56,42:1
56,43:4
56,44:1
56,45:4
56,46:4
56,47:4
56,48:3
56,49:4
56,50:1
56,51:1
56,52:1
56,53:3
56,54:4
56,55:1
56,56:1
56,68:4
56,69:4
56,70:4
56,71:4
56,72:4
56,80:4
57,1:2
57,2:2
57,3:2
57,4:2
57,5:2
57,6:2
57,7:2
57,8:1
57,9:2
57,10:1
57,11:2
57,12:1
57,13:1
57,14:1
57,15:1
57,16:3
57,17:1
57,18:3
57,19:3
57,20:3
57,21:3
57,22:3
57,23:3
57,24:3
57,25:2
57,26:2
57,27:2
57,28:2
57,29:2
57,30:2
57,31:2
57,32:3
57,33:3
57,34:3
57,35:3
57,36:2
57,37:2
57,38:2
57,39:2
57,40:1
57,41:1
57,42:1
57,43:4
57,44:1
57,45:4
57,46:4
57,47:4
57,48:3
57,49:4
57,50:1
57,51:1
57,52:1
57,53:3
57,54:4
57,55:1
57,56:1
57,57:1
57,68:4
57,69:4
57,70:4
57,71:4
57,72:4
57,80:4
58,16:1
58,18:1
58,19:1
58,20:1
58,21:1
58,22:1
58,23:1
58,24:1
58,32:1
58,33:1
58,34:1
58,35:1
58,43:2
58,45:2
58,46:2
58,47:2
58,48:1
58,49:2
58,53:1
58,54:2
58,58:1
58,59:1
58,60:1
58,61:1
58,64:1
58,66:1
58,68:2
58,69:2
58,70:2
58,71:2
58,72:2
58,80:2
59,16:1
59,18:1
59,19:1
59,20:1
59,21:1
59,22:1
59,23:1
59,24:1
59,32:1
59,33:1
59,34:1
59,35:1
59,43:2
59,45:2
59,46:2
59,47:2
59,48:1
59,49:2
59,53:1
59,54:2
59,58:1
59,59:1
59,60:1
59,61:1
59,64:1
59,66:1
59,68:2
59,69:2
59,70:2
59,71:2
59,72:2
59,80:2
60,16:1
60,18:1
60,19:1
60,20:1
60,21:1
60,22:1
60,23:1
60,24:1
60,32:1
60,33:1
60,34:1
60,35:1
60,43:2
60,45:2
60,46:2
60,47:2
60,48:1
60,49:2
60,53:1
60,54:2
60,58:1
60,59:1
60,60:1
60,61:1
60,64:1
60,66:1
60,68:2
60,69:2
60,70:2
60,71:2
60,72:2
60,80:2
61,16:1
61,18:1
61,19:1
61,20:1
61,21:1
61,22:1
61,23:1
61,24:1
61,32:1
61,33:1
61,34:1
61,35:1
61,43:2
61,45:2
61,46:2
61,47:2
61,48:1
61,49:2
61,53:1
61,54:2
61,58:1
61,59:1
61,60:1
61,61:1
61,64:1
61,66:1
61,68:2
61,69:2
61,70:2
61,71:2
61,72:2
61,80:2
62,1:2
62,2:2
62,3:2
62,4:2
62,5:2
62,6:2
62,7:2
62,8:1
62,9:2
62,10:1
62,11:2
62,12:1
62,13:1
62,14:1
62,15:1
62,16:3
62,17:1
62,18:3
62,19:3
62,20:3
62,21:3
62,22:3
62,23:3
62,24:3
62,25:2
62,26:2
62,27:2
62,28:2
62,29:2
62,30:2
62,31:2
62,32:3
62,33:3
62,34:3
62,35:3
62,36:2
62,37:2
62,38:2
62,39:2
62,40:1
62,41:1
62,42:1
62,43:4
62,44:1
62,45:4
62,46:4
62,47:4
62,48:3
62,49:4
62,50:1
62,51:1
62,52:1
62,53:3
62,54:4
62,55:1
62,56:1
62,57:1
62,58:3
62,59:3
62,60:3
62,61:3
62,62:1
62,63:1
62,64:3
62,65:1
62,66:3
62,68:4
62,69:4
62,70:4
62,71:4
62,72:4
62,80:4
63,1:2
63,2:2
63,3:2
63,4:2
63,5:2
63,6:2
63,7:2
63,8:1
63,9:2
63,10:1
63,11:2
63,12:1
63,13:1
63,14:1
63,15:1
63,16:3
63,17:1
63,18:3
63,19:3
63,20:3
63,21:3
63,22:3
63,23:3
63,24:3
63,25:2
63,26:2
63,27:2
63,28:2
63,29:2
63,30:2
63,31:2
63,32:3
63,33:3
63,34:3
63,35:3
63,36:2
63,37:2
63,38:2
63,39:2
63,40:1
63,41:1
63,42:1
63,43:4
63,44:1
63,45:4
63,46:4
63,47:4
63,48:3
63,49:4
63,50:1
63,51:1
63,52:1
63,53:3
63,54:4
63,55:1
63,56:1
63,57:1
63,58:3
63,59:3
63,60:3
63,61:3
63,62:1
63,63:1
63,64:3
63,65:1
63,66:3
63,68:4
63,69:4
63,70:4
63,71:4
63,72:4
63,80:4
64,16:1
64,18:1
64,19:1
64,20:1
64,21:1
64,22:1
64,23:1
64,24:1
64,32:1
64,33:1
64,34:1
64,35:1
64,43:2
64,45:2
64,46:2
64,47:2
64,48:1
64,49:2
64,53:1
64,54:2
64,58:1
64,59:1
64,60:1
64,61:1
64,64:1
64,66:1
64,68:2
64,69:2
64,70:2
64,71:2
64,72:2
64,80:2
65,1:2
65,2:2
65,3:2
65,4:2
65,5:2
65,6:2
65,7:2
65,8:1
65,9:2
65,10:1
65,11:2
65,12:1
65,13:1
65,14:1
65,15:1
65,16:3
65,17:1
65,18:3
65,19:3
65,20:3
65,21:3
65,22:3
65,23:3
65,24:3
65,25:2
65,26:2
65,27:2
65,28:2
65,29:2
65,30:2
65,31:2
65,32:3
65,33:3
65,34:3
65,35:3
65,36:2
65,37:2
65,38:2
65,39:2
65,40:1
65,41:1
65,42:1
65,43:4
65,44:1
65,45:4
65,46:4
65,47:4
65,48:3
65,49:4
65,50:1
65,51:1
65,52:1
65,53:3
65,54:4
65,55:1
65,56:1
65,57:1
65,58:3
65,59:3
65,60:3
65,61:3
65,62:1
65,63:1
65,64:3
65,65:1
65,66:3
65,68:4
65,69:4
65,70:4
65,71:4
65,72:4
65,80:4
66,16:1
66,18:1
66,19:1
66,20:1
66,21:1
66,22:1
66,23:1
66,24:1
66,32:1
66,33:1
66,34:1
66,35:1
66,43:2
66,45:2
66,46:2
66,47:2
66,48:1
66,49:2
66,53:1
66,54:2
66,58:1
66,59:1
66,60:1
66,61:1
66,64:1
66,66:1
66,68:2
66,69:2
66,70:2
66,71:2
66,72:2
66,80:2
67,16:1
67,18:1
67,19:1
67,20:1
67,21:1
67,22:1
67,23:1
67,24:1
67,32:1
67,33:1
67,34:1
67,35:1
67,43:2
67,45:2
67,46:2
67,47:2
67,48:1
67,49:2
67,53:1
67,54:2
67,58:1
67,59:1
67,60:1
67,61:1
67,64:1
67,66:1
67,67:1
67,68:2
67,69:2
67,70:2
67,71:2
67,72:2
67,80:2
68,43:1
68,45:1
68,46:1
68,47:1
68,49:1
68,54:1
68,68:1
68,69:1
68,70:1
68,71:1
68,73:1
68,74:1
69,43:1
69,45:1
69,46:1
69,47:1
69,49:1
69,54:1
69,68:1
69,69:1
69,70:1
69,71:1
69,73:1
69,74:1
70,43:1
70,45:1
70,46:1
70,47:1
70,49:1
70,54:1
70,68:1
70,69:1
70,70:1
70,71:1
70,73:1
70,74:1
71,43:1
71,45:1
71,46:1
71,47:1
71,49:1
71,54:1
71,68:1
71,69:1
71,70:1
71,71:1
71,72:1
71,80:1
72,43:1
72,45:1
72,46:1
72,47:1
72,49:1
72,54:1
72,68:1
72,69:1
72,70:1
72,71:1
72,72:1
72,73:1
72,74:1
73,43:1
73,45:1
73,46:1
73,47:1
73,49:1
73,54:1
73,68:1
73,69:1
73,70:1
73,71:1
73,72:1
73,73:1
73,80:1
74,43:1
74,45:1
74,46:1
74,47:1
74,49:1
74,54:1
74,68:1
74,69:1
74,70:1
74,71:1
74,72:1
74,73:1
74,74:1
74,80:1
75,1:1
75,2:1
75,3:1
75,4:1
75,5:1
75,6:1
75,7:1
75,9:1
75,11:1
75,16:2
75,18:2
75,19:2
75,20:2
75,21:2
75,22:2
75,23:2
75,24:2
75,25:1
75,26:1
75,27:1
75,28:1
75,29:1
75,30:1
75,31:1
75,32:2
75,33:2
75,34:2
75,35:2
75,36:1
75,37:1
75,38:1
75,39:1
75,43:3
75,45:3
75,46:3
75,47:3
75,48:2
75,49:3
75,53:2
75,54:3
75,58:2
75,59:2
75,60:2
75,61:2
75,64:2
75,66:2
75,67:2
75,68:3
75,69:3
75,70:3
75,71:3
75,72:3
75,73:3
75,74:3
75,75:1
75,76:1
75,80:3
76,1:1
76,2:1
76,3:1
76,4:1
76,5:1
76,6:1
76,7:1
76,9:1
76,11:1
76,16:2
76,18:2
76,19:2
76,20:2
76,21:2
76,22:2
76,23:2
76,24:2
76,25:1
76,26:1
76,27:1
76,28:1
76,29:1
76,30:1
76,31:1
76,32:2
76,33:2
76,34:2
76,35:2
76,36:1
76,37:1
76,38:1
76,39:1
76,43:3
76,45:3
76,46:3
76,47:3
76,48:2
76,49:3
76,53:2
76,54:3
76,58:2
76,59:2
76,60:2
76,61:2
76,64:2
76,66:2
76,67:2
76,68:3
76,69:3
76,70:3
76,71:3
76,72:3
76,73:3
76,74:3
76,75:1
76,76:1
76,77:1
76,78:1
76,79:1
76,80:3
77,1:1
77,2:1
77,3:1
77,4:1
77,5:1
77,6:1
77,7:1
77,9:1
77,11:1
77,16:2
77,18:2
77,19:2
77,20:2
77,21:2
77,22:2
77,23:2
77,24:2
77,25:1
77,26:1
77,27:1
77,28:1
77,29:1
77,30:1
77,31:1
77,32:2
77,33:2
77,34:2
77,35:2
77,36:1
77,37:1
77,38:1
77,39:1
77,43:3
77,45:3
77,46:3
77,47:3
77,48:2
77,49:3
77,53:2
77,54:3
77,58:2
77,59:2
77,60:2
77,61:2
77,64:2
77,66:2
77,67:2
77,68:3
77,69:3
77,70:3
77,71:3
77,72:3
77,73:3
77,74:3
77,75:1
77,76:1
77,77:1
77,80:3
78,1:1
78,2:1
78,3:1
78,4:1
78,5:1
78,6:1
78,7:1
78,9:1
78,11:1
78,16:2
78,18:2
78,19:2
78,20:2
78,21:2
78,22:2
78,23:2
78,24:2
78,25:1
78,26:1
78,27:1
78,28:1
78,29:1
78,30:1
78,31:1
78,32:2
78,33:2
78,34:2
78,35:2
78,36:1
78,37:1
78,38:1
78,39:1
78,43:3
78,45:3
78,46:3
78,47:3
78,48:2
78,49:3
78,53:2
78,54:3
78,58:2
78,59:2
78,60:2
78,61:2
78,64:2
78,66:2
78,67:2
78,68:3
78,69:3
78,70:3
78,71:3
78,72:3
78,73:3
78,74:3
78,75:1
78,76:1
78,77:1
78,78:1
78,80:3
79,1:1
79,2:1
79,3:1
79,4:1
79,5:1
79,6:1
79,7:1
79,9:1
79,11:1
79,16:2
79,18:2
79,19:2
79,20:2
79,21:2
79,22:2
79,23:2
79,24:2
79,25:1
79,26:1
79,27:1
79,28:1
79,29:1
79,30:1
79,31:1
79,32:2
79,33:2
79,34:2
79,35:2
79,36:1
79,37:1
79,38:1
79,39:1
79,43:3
79,45:3
79,46:3
79,47:3
79,48:2
79,49:3
79,53:2
79,54:3
79,58:2
79,59:2
79,60:2
79,61:2
79,64:2
79,66:2
79,67:2
79,68:3
79,69:3
79,70:3
79,71:3
79,72:3
79,73:3
79,74:3
79,75:1
79,76:1
79,77:1
79,78:1
79,79:1
79,80:3
80,43:1
80,45:1
80,46:1
80,47:1
80,49:1
80,54:1
80,68:1
80,69:1
80,70:1
80,71:1
80,72:1
80,73:1
80,74:1
80,80:1
81,1:1
81,2:1
81,3:1
81,4:1
81,5:1
81,6:1
81,7:1
81,9:1
81,11:1
81,16:2
81,18:2
81,19:2
81,20:2
81,21:2
81,22:2
81,23:2
81,24:2
81,25:1
81,26:1
81,27:1
81,28:1
81,29:1
81,30:1
81,31:1
81,32:2
81,33:2
81,34:2
81,35:2
81,36:1
81,37:1
81,38:1
81,39:1
81,43:3
81,45:3
81,46:3
81,47:3
81,48:2
81,49:3
81,53:2
81,54:3
81,58:2
81,59:2
81,60:2
81,61:2
81,64:2
81,66:2
81,67:2
81,68:3
81,69:3
81,70:3
81,71:3
81,72:3
81,73:3
81,74:3
81,75:1
81,76:1
81,77:1
81,78:1
81,79:1
81,80:3
81,81:1
82,1:1
82,2:1
82,3:1
82,4:1
82,5:1
82,6:1
82,7:1
82,9:1
82,11:1
82,16:2
82,18:2
82,19:2
82,20:2
82,21:2
82,22:2
82,23:2
82,24:2
82,25:1
82,26:1
82,27:1
82,28:1
82,29:1
82,30:1
82,31:1
82,32:2
82,33:2
82,34:2
82,35:2
82,36:1
82,37:1
82,38:1
82,39:1
82,43:3
82,45:3
82,46:3
82,47:3
82,48:2
82,49:3
82,53:2
82,54:3
82,58:2
82,59:2
82,60:2
82,61:2
82,64:2
82,66:2
82,67:2
82,68:3
82,69:3
82,70:3
82,71:3
82,72:3
82,73:3
82,74:3
82,75:1
82,76:1
82,77:1
82,78:1
82,79:1
82,80:3
82,81:1
82,82:1
82,84:1
82,85:1
83,1:1
83,2:1
83,3:1
83,4:1
83,5:1
83,6:1
83,7:1
83,9:1
83,11:1
83,16:2
83,18:2
83,19:2
83,20:2
83,21:2
83,22:2
83,23:2
83,24:2
83,25:1
83,26:1
83,27:1
83,28:1
83,29:1
83,30:1
83,31:1
83,32:2
83,33:2
83,34:2
83,35:2
83,36:1
83,37:1
83,38:1
83,39:1
83,43:3
83,45:3
83,46:3
83,47:3
83,48:2
83,49:3
83,53:2
83,54:3
83,58:2
83,59:2
83,60:2
83,61:2
83,64:2
83,66:2
83,67:2
83,68:3
83,69:3
83,70:3
83,71:3
83,72:3
83,73:3
83,74:3
83,75:1
83,76:1
83,77:1
83,78:1
83,79:1
83,80:3
83,81:1
83,82:1
83,83:1
83,84:1
83,85:1
84,1:1
84,2:1
84,3:1
84,4:1
84,5:1
84,6:1
84,7:1
84,9:1
84,11:1
84,16:2
84,18:2
84,19:2
84,20:2
84,21:2
84,22:2
84,23:2
84,24:2
84,25:1
84,26:1
84,27:1
84,28:1
84,29:1
84,30:1
84,31:1
84,32:2
84,33:2
84,34:2
84,35:2
84,36:1
84,37:1
84,38:1
84,39:1
84,43:3
84,45:3
84,46:3
84,47:3
84,48:2
84,49:3
84,53:2
84,54:3
84,58:2
84,59:2
84,60:2
84,61:2
84,64:2
84,66:2
84,67:2
84,68:3
84,69:3
84,70:3
84,71:3
84,72:3
84,73:3
84,74:3
84,75:1
84,76:1
84,77:1
84,78:1
84,79:1
84,80:3
84,81:1
84,82:1
84,83:1
84,84:1
84,85:1
85,1:1
85,2:1
85,3:1
85,4:1
85,5:1
85,6:1
85,7:1
85,9:1
85,11:1
85,16:2
85,18:2
85,19:2
85,20:2
85,21:2
85,22:2
85,23:2
85,24:2
85,25:1
85,26:1
85,27:1
85,28:1
85,29:1
85,30:1
85,31:1
85,32:2
85,33:2
85,34:2
85,35:2
85,36:1
85,37:1
85,38:1
85,39:1
85,43:3
85,45:3
85,46:3
85,47:3
85,48:2
85,49:3
85,53:2
85,54:3
85,58:2
85,59:2
85,60:2
85,61:2
85,64:2
85,66:2
85,67:2
85,68:3
85,69:3
85,70:3
85,71:3
85,72:3
85,73:3
85,74:3
85,75:1
85,76:1
85,77:1
85,78:1
85,79:1
85,80:3
85,81:1
85,82:1
85,83:1
85,84:1
85,85:1
86,1:1
86,2:1
86,3:1
86,4:1
86,5:1
86,6:1
86,7:1
86,9:1
86,11:1
86,16:2
86,18:2
86,19:2
86,20:2
86,21:2
86,22:2
86,23:2
86,24:2
86,25:1
86,26:1
86,27:1
86,28:1
86,29:1
86,30:1
86,31:1
86,32:2
86,33:2
86,34:2
86,35:2
86,36:1
86,37:1
86,38:1
86,39:1
86,43:3
86,45:3
86,46:3
86,47:3
86,48:2
86,49:3
86,53:2
86,54:3
86,58:2
86,59:2
86,60:2
86,61:2
86,64:2
86,66:2
86,67:2
86,68:3
86,69:3
86,70:3
86,71:3
86,72:3
86,73:3
86,74:3
86,75:1
86,76:1
86,77:1
86,78:1
86,79:1
86,80:3
86,81:1
86,82:1
86,83:1
86,84:1
86,85:1
86,86:1
87,1:1
87,2:1
87,3:1
87,4:1
87,5:1
87,6:1
87,7:1
87,9:1
87,11:1
87,16:2
87,18:2
87,19:2
87,20:2
87,21:2
87,22:2
87,23:2
87,24:2
87,25:1
87,26:1
87,27:1
87,28:1
87,29:1
87,30:1
87,31:1
87,32:2
87,33:2
87,34:2
87,35:2
87,36:1
87,37:1
87,38:1
87,39:1
87,43:3
87,45:3
87,46:3
87,47:3
87,48:2
87,49:3
87,53:2
87,54:3
87,58:2
87,59:2
87,60:2
87,61:2
87,64:2
87,66:2
87,67:2
87,68:3
87,69:3
87,70:3
87,71:3
87,72:3
87,73:3
87,74:3
87,75:1
87,76:1
87,77:1
87,78:1
87,79:1
87,80:3
87,81:1
87,82:1
87,83:1
87,84:1
87,85:1
87,86:1
87,87:1
88,1:1
88,2:1
88,3:1
88,4:1
88,5:1
88,6:1
88,7:1
88,9:1
88,11:1
88,16:2
88,18:2
88,19:2
88,20:2
88,21:2
88,22:2
88,23:2
88,24:2
88,25:1
88,26:1
88,27:1
88,28:1
88,29:1
88,30:1
88,31:1
88,32:2
88,33:2
88,34:2
88,35:2
88,36:1
88,37:1
88,38:1
88,39:1
88,43:3
88,45:3
88,46:3
88,47:3
88,48:2
88,49:3
88,53:2
88,54:3
88,58:2
88,59:2
88,60:2
88,61:2
88,64:2
88,66:2
88,67:2
88,68:3
88,69:3
88,70:3
88,71:3
88,72:3
88,73:3
88,74:3
88,75:1
88,76:1
88,77:1
88,78:1
88,79:1
88,80:3
88,81:1
88,82:1
88,83:1
88,84:1
88,85:1
88,86:1
88,87:1
88,88:1
88,89:1
89,1:1
89,2:1
89,3:1
89,4:1
89,5:1
89,6:1
89,7:1
89,9:1
89,11:1
89,16:2
89,18:2
89,19:2
89,20:2
89,21:2
89,22:2
89,23:2
89,24:2
89,25:1
89,26:1
89,27:1
89,28:1
89,29:1
89,30:1
89,31:1
89,32:2
89,33:2
89,34:2
89,35:2
89,36:1
89,37:1
89,38:1
89,39:1
89,43:3
89,45:3
89,46:3
89,47:3
89,48:2
89,49:3
89,53:2
89,54:3
89,58:2
89,59:2
89,60:2
89,61:2
89,64:2
89,66:2
89,67:2
89,68:3
89,69:3
89,70:3
89,71:3
89,72:3
89,73:3
89,74:3
89,75:1
89,76:1
89,77:1
89,78:1
89,79:1
89,80:3
89,81:1
89,82:1
89,83:1
89,84:1
89,85:1
89,86:1
89,87:1
89,88:1
89,89:1

<end>

<optimal SALBP-1 value>
13


<rand seed>
467321153

<Lower Bounds>
Lm1=12
Lms1=12
Lm2=1
Lm3=2
Lm4=12
Best=12

<Optimal Stations (Iterations: 10)>
14
